10
2147483647 38 81 82 38 23 50 78 81 48 
38 2147483647 73 19 36 29 66 30 63 20 
81 73 2147483647 89 50 35 30 82 5 78 
82 19 89 2147483647 51 79 9 62 54 15 
38 36 50 51 2147483647 11 36 12 88 38 
23 29 35 79 11 2147483647 56 41 37 67 
50 66 30 9 36 56 2147483647 4 26 45 
78 30 82 62 12 41 4 2147483647 94 10 
81 63 5 54 88 37 26 94 2147483647 2 
48 20 78 15 38 67 45 10 2 2147483647 
